n_machines = 5;
n_resources = 8;
n_jobs = 80;
horizon = 426;
LB = 85;
n_jobs_per_resource = [10, 10, 10, 10, 10, 10, 10, 10];
duration = [6, 7, 6, 1, 3, 8, 3, 5, 3, 6, 6, 8, 7, 8, 2, 8, 6, 8, 9, 8, 7, 8, 4, 5, 3, 9, 5, 9, 6, 7, 6, 5, 1, 6, 3, 6, 8, 6, 1, 4, 7, 6, 2, 9, 2, 1, 2, 1, 1, 8, 8, 8, 1, 6, 3, 6, 8, 3, 8, 4, 9, 6, 4, 7, 8, 2, 9, 6, 6, 3, 8, 2, 2, 6, 3, 3, 8, 4, 2, 7]